RT is False
Default write of storage_offers_DA.csv just to have a file (but constraint should be inactive)
Reading model...
...model read.
creating competitive generators file...
...competitive generators recorded.
Loading data...
.. day-ahead data read.
Compiling instance...
...instance created.
Creating Offer Mitigation (model will solve as dispatch if TRUE)...
NOTE: storage offers will not be mitigated
...storage offer mitigation file created
Converting model to MPEC...
...converted
NOTE: initial MIP solve with only storage competitive to get feasible solution
Solving...

Welcome to IBM(R) ILOG(R) CPLEX(R) Interactive Optimizer 12.9.0.0
  with Simplex, Mixed Integer & Barrier Optimizers
5725-A06 5725-A29 5724-Y48 5724-Y49 5724-Y54 5724-Y55 5655-Y21
Copyright IBM Corp. 1988, 2019.  All Rights Reserved.

Type 'help' for a list of available commands.
Type 'help' followed by a command name for more
information on commands.

CPLEX> Logfile 'cplex.log' closed.
Logfile 'C:\Users\llavin\Desktop\test85\logs\tmpw46tgt9_.cplex.log' open.
CPLEX> New value for parallel optimization mode: -1
CPLEX> New value for mixed integer optimality gap tolerance: 0.001
CPLEX> New value for deterministic time limit in ticks: 100000
CPLEX> Problem 'C:\Users\llavin\Desktop\test85\logs\tmpg3qke88d.pyomo.lp' read.
Read time = 0.23 sec. (14.72 ticks)
CPLEX> Problem name         : C:\Users\llavin\Desktop\test85\logs\tmpg3qke88d.pyomo.lp
Objective sense      : Maximize
Variables            :   53803  [Nneg: 1,  Box: 21998,  Free: 4464,
                                 Binary: 27340]
Objective nonzeros   :    9038
Linear constraints   :  123205  [Less: 41346,  Greater: 59096,  Equal: 22763]
  Nonzeros           :  289291
  RHS nonzeros       :   67475

Variables            : Min LB: -5000.000        Max UB: 1000000.       
Objective nonzeros   : Min   : 0.1000000        Max   : 2500.000       
Linear constraints   :
  Nonzeros           : Min   : 0.1000000        Max   : 1000000.       
  RHS nonzeros       : Min   : 0.1000000        Max   : 1000000.       
CPLEX> CPXPARAM_Parallel                                -1
CPXPARAM_DetTimeLimit                            100000
CPXPARAM_MIP_Tolerances_MIPGap                   0.001
Tried aggregator 3 times.
MIP Presolve eliminated 88813 rows and 19123 columns.
MIP Presolve added 3383 rows and 0 columns.
MIP Presolve modified 24766 coefficients.
Aggregator did 12994 substitutions.
Reduced MIP has 24781 rows, 21118 columns, and 68197 nonzeros.
Reduced MIP has 8352 binaries, 0 generals, 0 SOSs, and 0 indicators.
Presolve time = 0.28 sec. (167.40 ticks)
Probing fixed 408 vars, tightened 3899 bounds.
Probing time = 0.06 sec. (17.43 ticks)
Tried aggregator 2 times.
MIP Presolve eliminated 920 rows and 816 columns.
MIP Presolve modified 3133 coefficients.
Aggregator did 24 substitutions.
Reduced MIP has 23837 rows, 20278 columns, and 65469 nonzeros.
Reduced MIP has 7944 binaries, 0 generals, 0 SOSs, and 0 indicators.
Presolve time = 0.11 sec. (89.67 ticks)
Probing fixed 0 vars, tightened 280 bounds.
Probing time = 0.14 sec. (22.08 ticks)
Clique table members: 43915.
MIP emphasis: balance optimality and feasibility.
MIP search method: dynamic search.
Parallel mode: opportunistic, using up to 32 threads.
Root relaxation solution time = 0.42 sec. (619.82 ticks)

        Nodes                                         Cuts/
   Node  Left     Objective  IInf  Best Integer    Best Bound    ItCnt     Gap

      0     0     8023.7603   100                   8023.7603     5716         
      0     0     8023.7603    10                    Cuts: 25     5726         
      0     0     8011.7230    11                     Cuts: 4     5739         
      0     0     8005.0484    15                    Cuts: 20     5760         
      0     0     7441.7160    14                    Cuts: 10     5771         
*     0+    0                         4227.4605     7441.7160            76.03%
      0     0     7426.5605    15     4227.4605       Cuts: 6     5777   37.62%
*     0+    0                         4410.6248     5817.8361            31.91%
      0     0     7127.0611    22     4410.6248       Cuts: 8     5794   31.91%
      0     0     6667.2678    16     4410.6248     Cuts: 101     5832   31.91%
      0     0     6182.3184    24     4410.6248      Cuts: 86     5872   31.91%
      0     0     6080.6932    22     4410.6248      Cuts: 47     5890   31.91%
      0     0     6073.5738    22     4410.6248       Cuts: 9     5902   31.91%
*     0+    0                         4508.4792     5817.8361            29.04%
*     0+    0                         5124.9118     5817.8361            13.52%
      0     4    infeasible           5164.3459  Impl Bds: 17     6101    3.47%
Elapsed time = 5.55 sec. (2604.09 ticks, tree = 0.02 MB, solutions = 5)

Cover cuts applied:  3
Implied bound cuts applied:  27
Flow cuts applied:  47
Mixed integer rounding cuts applied:  18
Gomory fractional cuts applied:  3

Root node processing (before b&c):
  Real time             =    4.11 sec. (2593.94 ticks)
Parallel b&c, 32 threads:
  Real time             =    1.56 sec. (220.03 ticks)
  Sync time (average)   =    0.82 sec.
  Wait time (average)   =    0.00 sec.
                          ------------
Total (root+branch&cut) =    5.67 sec. (2813.97 ticks)

Solution pool: 5 solutions saved.

MIP - Integer optimal solution:  Objective =  5.1643459363e+03
Solution time =    5.69 sec.  Iterations = 6122  Nodes = 31
Deterministic time = 2814.12 ticks  (494.83 ticks/sec)

CPLEX> Incumbent solution written to file 'C:\Users\llavin\Desktop\test85\logs\tmp_0h0ueqr.cplex.sol'.
CPLEX> NOTE: no warmstart specified for MIP iteration, default behavior is true
NOTE: resolving with all competitive generators using storage-only solution to warmstart
Solving...

Welcome to IBM(R) ILOG(R) CPLEX(R) Interactive Optimizer 12.9.0.0
  with Simplex, Mixed Integer & Barrier Optimizers
5725-A06 5725-A29 5724-Y48 5724-Y49 5724-Y54 5724-Y55 5655-Y21
Copyright IBM Corp. 1988, 2019.  All Rights Reserved.

Type 'help' for a list of available commands.
Type 'help' followed by a command name for more
information on commands.

CPLEX> Logfile 'cplex.log' closed.
Logfile 'C:\Users\llavin\Desktop\test85\logs\tmp1d_qntrj.cplex.log' open.
CPLEX> New value for parallel optimization mode: -1
CPLEX> New value for mixed integer optimality gap tolerance: 0.001
CPLEX> New value for deterministic time limit in ticks: 100000
CPLEX> Problem 'C:\Users\llavin\Desktop\test85\logs\tmptq8y8zz4.pyomo.lp' read.
Read time = 0.23 sec. (14.75 ticks)
CPLEX> MIP start file 'C:\Users\llavin\Desktop\test85\logs\tmpewwibngb.cplex.mst' read.
CPLEX> Problem name         : C:\Users\llavin\Desktop\test85\logs\tmptq8y8zz4.pyomo.lp
Objective sense      : Maximize
Variables            :   54523  [Nneg: 1,  Box: 22718,  Free: 4464,
                                 Binary: 27340]
Objective nonzeros   :    9734
Linear constraints   :  123205  [Less: 41346,  Greater: 59096,  Equal: 22763]
  Nonzeros           :  289291
  RHS nonzeros       :   67475

Variables            : Min LB: -5000.000        Max UB: 1000000.       
Objective nonzeros   : Min   : 0.1000000        Max   : 2500.000       
Linear constraints   :
  Nonzeros           : Min   : 0.1000000        Max   : 1000000.       
  RHS nonzeros       : Min   : 0.1000000        Max   : 1000000.       
CPLEX> CPXPARAM_Parallel                                -1
CPXPARAM_DetTimeLimit                            100000
CPXPARAM_MIP_Tolerances_MIPGap                   0.001
Warning:  No solution found from 1 MIP starts.
Retaining values of one MIP start for possible repair.
Tried aggregator 3 times.
MIP Presolve eliminated 88813 rows and 19843 columns.
MIP Presolve added 3383 rows and 0 columns.
MIP Presolve modified 24766 coefficients.
Aggregator did 12994 substitutions.
Reduced MIP has 24781 rows, 21118 columns, and 68197 nonzeros.
Reduced MIP has 8352 binaries, 0 generals, 0 SOSs, and 0 indicators.
Presolve time = 0.27 sec. (167.75 ticks)
Probing fixed 408 vars, tightened 3899 bounds.
Probing time = 0.08 sec. (17.43 ticks)
Tried aggregator 2 times.
MIP Presolve eliminated 920 rows and 816 columns.
MIP Presolve modified 3133 coefficients.
Aggregator did 24 substitutions.
Reduced MIP has 23837 rows, 20278 columns, and 65469 nonzeros.
Reduced MIP has 7944 binaries, 0 generals, 0 SOSs, and 0 indicators.
Presolve time = 0.11 sec. (89.67 ticks)
Probing fixed 0 vars, tightened 280 bounds.
Probing time = 0.13 sec. (22.08 ticks)
Clique table members: 43915.
MIP emphasis: balance optimality and feasibility.
MIP search method: dynamic search.
Parallel mode: opportunistic, using up to 32 threads.
Root relaxation solution time = 0.45 sec. (646.27 ticks)

        Nodes                                         Cuts/
   Node  Left     Objective  IInf  Best Integer    Best Bound    ItCnt     Gap

      0     0    46688.2075   135                  46688.2075     6202         
      0     0    45835.9421    48                    Cuts: 74     6279         
      0     0    45401.2307    46                    Cuts: 34     6305         
      0     0    45281.1973    50                    Cuts: 29     6324         
      0     0    45273.0668    49                    Cuts: 14     6332         
      0     0    45272.8341    51                     Cuts: 7     6338         
      0     0    45271.0366    50                     Cuts: 2     6341         
Repair heuristic found nothing.
      0    33    40584.1276    38                    Cuts: 14     6615         
Elapsed time = 5.94 sec. (3103.86 ticks, tree = 0.02 MB, solutions = 0)
    498    80    36765.0666    38                  43551.4247     7067         
   1147   907    24631.6520    33                  43551.4247    13816         
*  1237+  964                        31808.2931    43551.4247            36.92%
   1897  1204    26483.0586    11    31808.2931    43551.4247    17854   36.92%
   2556   940    33566.5809    12    32922.4942    43479.5650    25983   32.07%
   3442  1294    33378.1815     5    32922.4942    43462.1964    30372   32.01%
*  3501  1260      integral     0    33123.5923    43462.1964    30296   31.21%
   4303  1271        cutoff          33520.7404    43409.3300    34566   29.50%
   5075  1363    33729.3472    10    33520.7404    42954.9654    38446   28.14%
*  6164  2001      integral     0    33689.9589    42625.3568    46677   26.52%
Elapsed time = 17.06 sec. (5174.94 ticks, tree = 10.74 MB, solutions = 18)
   8335  1987    infeasible          33773.6792    35456.6369    82585    4.98%
   9050   120    33809.5289    12    33773.6792    33811.7296    84161    0.11%
   9269   148    33793.6687    11    33773.6792    33811.7296    85480    0.11%

Cover cuts applied:  11
Implied bound cuts applied:  1
Flow cuts applied:  51
Mixed integer rounding cuts applied:  19
Zero-half cuts applied:  1
Gomory fractional cuts applied:  3

Root node processing (before b&c):
  Real time             =    4.63 sec. (3065.63 ticks)
Parallel b&c, 32 threads:
  Real time             =   29.20 sec. (8232.53 ticks)
  Sync time (average)   =    7.71 sec.
  Wait time (average)   =    0.18 sec.
                          ------------
Total (root+branch&cut) =   33.83 sec. (11298.17 ticks)

Solution pool: 18 solutions saved.

MIP - Integer optimal, tolerance (0.001/1e-06):  Objective =  3.3773679183e+04
Current MIP best bound =  3.3807096682e+04 (gap = 33.4175, 0.10%)
Solution time =   33.83 sec.  Iterations = 85913  Nodes = 9280 (162)
Deterministic time = 11298.32 ticks  (333.99 ticks/sec)

CPLEX> Incumbent solution written to file 'C:\Users\llavin\Desktop\test85\logs\tmp6yfk0nyg.cplex.sol'.
CPLEX> Exporting results... 
